p tw 288 17280 1 
0 2 
0 3 
0 4 
0 5 
0 6 
0 7 
0 8 
0 9 
0 10 
0 11 
0 12 
0 13 
0 14 
0 15 
0 16 
0 17 
0 18 
0 19 
0 20 
0 21 
0 22 
0 23 
0 24 
0 25 
0 26 
0 27 
0 28 
0 29 
0 30 
0 31 
0 32 
0 33 
0 34 
0 35 
0 36 
0 37 
0 38 
0 39 
0 40 
0 41 
0 42 
0 43 
0 44 
0 45 
0 46 
0 47 
0 48 
0 49 
0 50 
0 51 
0 52 
0 53 
0 54 
0 55 
0 56 
0 57 
0 58 
0 59 
0 60 
0 61 
0 62 
0 63 
0 64 
0 65 
0 66 
0 67 
0 68 
0 69 
0 70 
0 71 
0 72 
0 73 
0 74 
0 75 
0 76 
0 77 
0 78 
0 79 
0 80 
0 81 
0 82 
0 83 
0 84 
0 85 
0 86 
0 87 
0 88 
0 89 
0 90 
0 91 
0 92 
0 93 
0 94 
0 95 
0 96 
0 97 
0 98 
0 99 
0 100 
0 101 
0 102 
0 103 
0 104 
0 105 
0 106 
0 107 
0 108 
0 109 
0 110 
0 111 
0 112 
0 113 
0 114 
0 115 
0 116 
0 117 
0 118 
0 119 
0 120 
0 121 
0 122 
0 123 
0 124 
0 125 
0 126 
0 127 
0 128 
0 129 
0 130 
0 131 
0 132 
0 133 
0 134 
0 135 
0 136 
0 137 
0 138 
0 139 
0 140 
0 141 
0 142 
0 143 
0 144 
1 145 
1 146 
1 147 
1 148 
1 149 
1 150 
1 151 
1 152 
1 153 
1 154 
1 155 
1 156 
1 157 
1 158 
1 159 
1 160 
1 161 
1 162 
1 163 
1 164 
1 165 
1 166 
1 167 
1 168 
1 169 
1 170 
1 171 
1 172 
1 173 
1 174 
1 175 
1 176 
1 177 
1 178 
1 179 
1 180 
1 181 
1 182 
1 183 
1 184 
1 185 
1 186 
1 187 
1 188 
1 189 
1 190 
1 191 
1 192 
1 193 
1 194 
1 195 
1 196 
1 197 
1 198 
1 199 
1 200 
1 201 
1 202 
1 203 
1 204 
1 205 
1 206 
1 207 
1 208 
1 209 
1 210 
1 211 
1 212 
1 213 
1 214 
1 215 
1 216 
1 217 
1 218 
1 219 
1 220 
1 221 
1 222 
1 223 
1 224 
1 225 
1 226 
1 227 
1 228 
1 229 
1 230 
1 231 
1 232 
1 233 
1 234 
1 235 
1 236 
1 237 
1 238 
1 239 
1 240 
1 241 
1 242 
1 243 
1 244 
1 245 
1 246 
1 247 
1 248 
1 249 
1 250 
1 251 
1 252 
1 253 
1 254 
1 255 
1 256 
1 257 
1 258 
1 259 
1 260 
1 261 
1 262 
1 263 
1 264 
1 265 
1 266 
1 267 
1 268 
1 269 
1 270 
1 271 
1 272 
1 273 
1 274 
1 275 
1 276 
1 277 
1 278 
1 279 
1 280 
1 281 
1 282 
1 283 
1 284 
1 285 
1 286 
1 287 
1 288 
1 150 
1 168 
1 172 
1 175 
1 177 
1 186 
1 188 
1 189 
1 199 
1 235 
1 236 
1 257 
2 146 
2 152 
2 166 
2 184 
2 192 
2 194 
2 205 
2 212 
2 225 
2 275 
2 278 
2 285 
3 146 
3 166 
3 184 
3 194 
3 205 
3 212 
3 225 
3 238 
3 240 
3 265 
3 275 
3 285 
4 156 
4 166 
4 181 
4 184 
4 194 
4 225 
4 228 
4 240 
4 260 
4 265 
4 278 
4 279 
5 183 
5 207 
5 210 
5 211 
5 214 
5 216 
5 221 
5 223 
5 244 
5 256 
5 259 
5 287 
6 159 
6 174 
6 183 
6 207 
6 210 
6 211 
6 214 
6 216 
6 221 
6 244 
6 259 
6 287 
7 163 
7 169 
7 173 
7 185 
7 186 
7 190 
7 191 
7 236 
7 248 
7 257 
7 270 
7 282 
8 149 
8 154 
8 161 
8 165 
8 170 
8 182 
8 209 
8 245 
8 246 
8 263 
8 268 
8 274 
9 154 
9 164 
9 165 
9 170 
9 201 
9 209 
9 218 
9 229 
9 239 
9 245 
9 261 
9 268 
10 164 
10 201 
10 204 
10 215 
10 218 
10 219 
10 220 
10 222 
10 229 
10 231 
10 239 
10 261 
11 166 
11 194 
11 205 
11 228 
11 240 
11 253 
11 260 
11 265 
11 267 
11 275 
11 278 
11 279 
12 167 
12 171 
12 178 
12 179 
12 187 
12 206 
12 213 
12 224 
12 242 
12 249 
12 252 
12 276 
13 168 
13 173 
13 175 
13 186 
13 188 
13 190 
13 191 
13 235 
13 257 
13 258 
13 270 
13 282 
14 149 
14 161 
14 201 
14 215 
14 219 
14 220 
14 229 
14 231 
14 245 
14 246 
14 268 
14 274 
15 163 
15 169 
15 172 
15 173 
15 176 
15 185 
15 189 
15 190 
15 248 
15 258 
15 264 
15 282 
16 150 
16 163 
16 172 
16 176 
16 177 
16 185 
16 188 
16 189 
16 199 
16 248 
16 258 
16 264 
17 149 
17 161 
17 164 
17 165 
17 182 
17 209 
17 215 
17 231 
17 245 
17 263 
17 268 
17 274 
18 150 
18 168 
18 175 
18 177 
18 186 
18 188 
18 191 
18 199 
18 235 
18 236 
18 257 
18 270 
19 149 
19 154 
19 164 
19 165 
19 170 
19 182 
19 218 
19 219 
19 222 
19 239 
19 263 
19 268 
20 151 
20 155 
20 160 
20 183 
20 207 
20 210 
20 211 
20 214 
20 223 
20 234 
20 256 
20 287 
21 147 
21 157 
21 158 
21 180 
21 250 
21 254 
21 255 
21 262 
21 272 
21 273 
21 277 
21 280 
22 167 
22 178 
22 179 
22 187 
22 195 
22 197 
22 206 
22 208 
22 226 
22 230 
22 266 
22 276 
23 154 
23 161 
23 170 
23 201 
23 204 
23 219 
23 220 
23 245 
23 246 
23 261 
23 263 
23 274 
24 153 
24 195 
24 197 
24 200 
24 202 
24 213 
24 230 
24 247 
24 252 
24 266 
24 276 
24 288 
25 150 
25 168 
25 173 
25 175 
25 176 
25 188 
25 191 
25 248 
25 257 
25 258 
25 270 
25 282 
26 145 
26 151 
26 155 
26 159 
26 160 
26 174 
26 183 
26 203 
26 210 
26 211 
26 244 
26 287 
27 153 
27 167 
27 178 
27 195 
27 197 
27 200 
27 213 
27 230 
27 252 
27 266 
27 276 
27 288 
28 162 
28 178 
28 179 
28 195 
28 197 
28 206 
28 213 
28 242 
28 247 
28 249 
28 252 
28 288 
29 158 
29 196 
29 198 
29 232 
29 241 
29 251 
29 255 
29 269 
29 271 
29 277 
29 283 
29 284 
30 149 
30 154 
30 164 
30 201 
30 204 
30 215 
30 218 
30 219 
30 220 
30 229 
30 239 
30 245 
31 146 
31 152 
31 156 
31 181 
31 184 
31 192 
31 194 
31 212 
31 225 
31 238 
31 279 
31 286 
32 148 
32 198 
32 237 
32 241 
32 255 
32 262 
32 269 
32 271 
32 272 
32 280 
32 283 
32 284 
33 152 
33 156 
33 181 
33 192 
33 193 
33 212 
33 253 
33 260 
33 267 
33 278 
33 279 
33 286 
34 148 
34 198 
34 217 
34 237 
34 241 
34 251 
34 269 
34 271 
34 272 
34 280 
34 283 
34 284 
35 145 
35 151 
35 155 
35 159 
35 160 
35 174 
35 203 
35 227 
35 233 
35 234 
35 243 
35 281 
36 153 
36 167 
36 171 
36 202 
36 206 
36 213 
36 224 
36 230 
36 242 
36 252 
36 276 
36 288 
37 149 
37 154 
37 161 
37 165 
37 170 
37 201 
37 209 
37 222 
37 229 
37 239 
37 246 
37 268 
38 152 
38 156 
38 166 
38 192 
38 194 
38 228 
38 253 
38 260 
38 267 
38 275 
38 278 
38 279 
39 162 
39 171 
39 179 
39 187 
39 202 
39 206 
39 208 
39 224 
39 226 
39 242 
39 247 
39 249 
40 147 
40 148 
40 158 
40 196 
40 198 
40 232 
40 254 
40 255 
40 262 
40 269 
40 271 
40 273 
41 149 
41 164 
41 165 
41 182 
41 209 
41 215 
41 218 
41 222 
41 229 
41 231 
41 268 
41 274 
42 149 
42 161 
42 182 
42 204 
42 215 
42 219 
42 220 
42 222 
42 231 
42 246 
42 263 
42 274 
43 179 
43 187 
43 195 
43 197 
43 202 
43 206 
43 213 
43 247 
43 249 
43 252 
43 266 
43 276 
44 181 
44 184 
44 192 
44 194 
44 205 
44 212 
44 238 
44 253 
44 260 
44 265 
44 285 
44 286 
45 147 
45 157 
45 158 
45 180 
45 196 
45 232 
45 250 
45 254 
45 255 
45 262 
45 273 
45 277 
46 167 
46 179 
46 195 
46 202 
46 206 
46 208 
46 224 
46 226 
46 230 
46 266 
46 276 
46 288 
47 150 
47 163 
47 169 
47 175 
47 176 
47 177 
47 191 
47 199 
47 235 
47 236 
47 264 
47 270 
48 146 
48 181 
48 192 
48 193 
48 205 
48 212 
48 238 
48 253 
48 265 
48 267 
48 285 
48 286 
49 152 
49 156 
49 181 
49 192 
49 193 
49 228 
49 253 
49 260 
49 267 
49 278 
49 279 
49 286 
50 156 
50 166 
50 181 
50 184 
50 192 
50 193 
50 212 
50 225 
50 260 
50 265 
50 278 
50 279 
51 154 
51 164 
51 165 
51 170 
51 201 
51 204 
51 209 
51 218 
51 222 
51 229 
51 239 
51 261 
52 159 
52 160 
52 174 
52 207 
52 210 
52 211 
52 214 
52 216 
52 234 
52 259 
52 281 
52 287 
53 160 
53 183 
53 203 
53 207 
53 211 
53 216 
53 223 
53 233 
53 244 
53 256 
53 259 
53 287 
54 163 
54 169 
54 172 
54 173 
54 176 
54 185 
54 189 
54 190 
54 235 
54 257 
54 258 
54 282 
55 153 
55 162 
55 167 
55 178 
55 187 
55 195 
55 197 
55 200 
55 213 
55 249 
55 252 
55 266 
56 157 
56 158 
56 196 
56 198 
56 251 
56 254 
56 255 
56 269 
56 273 
56 277 
56 280 
56 283 
57 145 
57 151 
57 155 
57 159 
57 183 
57 203 
57 210 
57 211 
57 221 
57 227 
57 244 
57 256 
58 150 
58 163 
58 169 
58 173 
58 175 
58 177 
58 186 
58 189 
58 191 
58 248 
58 257 
58 258 
59 146 
59 152 
59 194 
59 205 
59 228 
59 238 
59 240 
59 253 
59 267 
59 275 
59 285 
59 286 
60 147 
60 148 
60 158 
60 180 
60 196 
60 232 
60 250 
60 255 
60 262 
60 271 
60 273 
60 284 
61 149 
61 164 
61 165 
61 182 
61 209 
61 215 
61 218 
61 222 
61 229 
61 231 
61 239 
61 268 
62 163 
62 169 
62 173 
62 176 
62 185 
62 190 
62 191 
62 248 
62 258 
62 264 
62 270 
62 282 
63 168 
63 172 
63 173 
63 185 
63 186 
63 188 
63 189 
63 190 
63 248 
63 257 
63 258 
63 282 
64 151 
64 159 
64 183 
64 207 
64 214 
64 216 
64 221 
64 227 
64 233 
64 234 
64 243 
64 256 
65 153 
65 162 
65 195 
65 197 
65 200 
65 202 
65 208 
65 226 
65 230 
65 247 
65 266 
65 288 
66 162 
66 167 
66 171 
66 178 
66 179 
66 187 
66 206 
66 208 
66 224 
66 226 
66 242 
66 249 
67 194 
67 205 
67 228 
67 238 
67 240 
67 253 
67 260 
67 265 
67 267 
67 275 
67 279 
67 286 
68 166 
68 193 
68 205 
68 228 
68 240 
68 253 
68 260 
68 265 
68 267 
68 275 
68 278 
68 285 
69 171 
69 179 
69 202 
69 206 
69 208 
69 224 
69 226 
69 230 
69 242 
69 247 
69 276 
69 288 
70 150 
70 163 
70 169 
70 173 
70 177 
70 185 
70 186 
70 189 
70 191 
70 248 
70 257 
70 258 
71 150 
71 168 
71 172 
71 175 
71 176 
71 177 
71 188 
71 189 
71 199 
71 235 
71 258 
71 264 
72 161 
72 201 
72 204 
72 209 
72 215 
72 220 
72 229 
72 231 
72 245 
72 246 
72 261 
72 274 
73 161 
73 165 
73 170 
73 182 
73 209 
73 222 
73 231 
73 246 
73 261 
73 263 
73 268 
73 274 
74 147 
74 148 
74 157 
74 196 
74 198 
74 217 
74 232 
74 237 
74 241 
74 262 
74 269 
74 284 
75 157 
75 158 
75 196 
75 198 
75 241 
75 251 
75 254 
75 255 
75 269 
75 277 
75 280 
75 283 
76 145 
76 155 
76 160 
76 174 
76 203 
76 210 
76 211 
76 223 
76 244 
76 259 
76 281 
76 287 
77 153 
77 167 
77 195 
77 200 
77 202 
77 208 
77 224 
77 226 
77 230 
77 266 
77 276 
77 288 
78 145 
78 151 
78 155 
78 159 
78 174 
78 210 
78 214 
78 221 
78 227 
78 234 
78 243 
78 281 
79 147 
79 148 
79 158 
79 198 
79 217 
79 241 
79 254 
79 262 
79 269 
79 271 
79 272 
79 280 
80 161 
80 164 
80 201 
80 204 
80 209 
80 215 
80 220 
80 222 
80 229 
80 231 
80 239 
80 261 
81 154 
81 161 
81 164 
81 170 
81 182 
81 204 
81 209 
81 220 
81 239 
81 245 
81 261 
81 263 
82 146 
82 152 
82 192 
82 193 
82 205 
82 212 
82 238 
82 253 
82 267 
82 275 
82 285 
82 286 
83 150 
83 163 
83 173 
83 175 
83 177 
83 186 
83 188 
83 191 
83 235 
83 257 
83 258 
83 270 
84 151 
84 155 
84 174 
84 207 
84 211 
84 214 
84 221 
84 223 
84 233 
84 234 
84 281 
84 287 
85 148 
85 158 
85 180 
85 196 
85 217 
85 232 
85 254 
85 262 
85 269 
85 271 
85 273 
85 283 
86 147 
86 148 
86 180 
86 217 
86 232 
86 237 
86 241 
86 250 
86 262 
86 271 
86 272 
86 284 
87 162 
87 167 
87 171 
87 178 
87 179 
87 206 
87 224 
87 226 
87 249 
87 252 
87 266 
87 288 
88 147 
88 148 
88 157 
88 196 
88 198 
88 232 
88 237 
88 254 
88 255 
88 262 
88 269 
88 273 
89 147 
89 157 
89 158 
89 180 
89 196 
89 217 
89 232 
89 250 
89 251 
89 254 
89 273 
89 277 
90 163 
90 169 
90 172 
90 177 
90 185 
90 186 
90 189 
90 190 
90 199 
90 235 
90 236 
90 264 
91 153 
91 162 
91 167 
91 171 
91 178 
91 200 
91 208 
91 224 
91 226 
91 230 
91 242 
91 288 
92 162 
92 178 
92 179 
92 187 
92 195 
92 197 
92 200 
92 208 
92 226 
92 247 
92 249 
92 266 
93 168 
93 169 
93 173 
93 175 
93 186 
93 190 
93 191 
93 235 
93 236 
93 257 
93 270 
93 282 
94 146 
94 181 
94 184 
94 193 
94 205 
94 212 
94 225 
94 238 
94 240 
94 265 
94 285 
94 286 
95 156 
95 181 
95 193 
95 228 
95 238 
95 240 
95 253 
95 260 
95 265 
95 267 
95 279 
95 286 
96 157 
96 180 
96 217 
96 237 
96 241 
96 250 
96 251 
96 272 
96 277 
96 280 
96 283 
96 284 
97 146 
97 152 
97 156 
97 166 
97 193 
97 225 
97 228 
97 240 
97 267 
97 275 
97 278 
97 279 
98 147 
98 148 
98 157 
98 180 
98 217 
98 237 
98 250 
98 254 
98 262 
98 272 
98 273 
98 280 
99 150 
99 168 
99 175 
99 177 
99 186 
99 188 
99 191 
99 199 
99 236 
99 248 
99 264 
99 270 
100 149 
100 165 
100 201 
100 215 
100 218 
100 219 
100 222 
100 229 
100 231 
100 246 
100 268 
100 274 
101 146 
101 166 
101 184 
101 194 
101 205 
101 225 
101 228 
101 238 
101 240 
101 265 
101 275 
101 285 
102 145 
102 151 
102 155 
102 183 
102 203 
102 221 
102 223 
102 227 
102 233 
102 243 
102 244 
102 256 
103 145 
103 159 
103 183 
103 203 
103 210 
103 211 
103 216 
103 221 
103 227 
103 244 
103 256 
103 259 
104 164 
104 182 
104 204 
104 215 
104 218 
104 219 
104 220 
104 231 
104 245 
104 261 
104 263 
104 274 
105 149 
105 154 
105 165 
105 170 
105 182 
105 218 
105 219 
105 245 
105 246 
105 263 
105 268 
105 274 
106 162 
106 171 
106 178 
106 179 
106 187 
106 197 
106 206 
106 213 
106 242 
106 247 
106 249 
106 252 
107 162 
107 178 
107 179 
107 187 
107 195 
107 197 
107 200 
107 208 
107 226 
107 230 
107 247 
107 266 
108 150 
108 163 
108 169 
108 172 
108 176 
108 177 
108 185 
108 189 
108 199 
108 236 
108 248 
108 264 
109 157 
109 180 
109 196 
109 232 
109 237 
109 250 
109 251 
109 255 
109 273 
109 277 
109 283 
109 284 
110 153 
110 162 
110 171 
110 200 
110 202 
110 213 
110 224 
110 242 
110 247 
110 249 
110 252 
110 288 
111 147 
111 148 
111 180 
111 217 
111 232 
111 237 
111 250 
111 262 
111 271 
111 272 
111 273 
111 284 
112 145 
112 203 
112 210 
112 211 
112 216 
112 221 
112 223 
112 244 
112 256 
112 259 
112 281 
112 287 
113 149 
113 161 
113 182 
113 215 
113 219 
113 220 
113 231 
113 245 
113 246 
113 263 
113 268 
113 274 
114 151 
114 159 
114 183 
114 207 
114 214 
114 216 
114 221 
114 227 
114 233 
114 243 
114 244 
114 256 
115 154 
115 170 
115 201 
115 204 
115 218 
115 219 
115 220 
115 222 
115 229 
115 239 
115 246 
115 261 
116 163 
116 176 
116 185 
116 188 
116 190 
116 191 
116 199 
116 235 
116 258 
116 264 
116 270 
116 282 
117 153 
117 162 
117 171 
117 178 
117 187 
117 197 
117 200 
117 213 
117 242 
117 247 
117 249 
117 252 
118 152 
118 156 
118 166 
118 184 
118 194 
118 225 
118 228 
118 240 
118 260 
118 275 
118 278 
118 279 
119 145 
119 155 
119 160 
119 174 
119 203 
119 210 
119 211 
119 223 
119 234 
119 259 
119 281 
119 287 
120 158 
120 180 
120 217 
120 241 
120 250 
120 251 
120 271 
120 272 
120 277 
120 280 
120 283 
120 284 
121 150 
121 168 
121 169 
121 172 
121 173 
121 175 
121 177 
121 186 
121 189 
121 236 
121 248 
121 257 
122 168 
122 172 
122 176 
122 185 
122 188 
122 190 
122 199 
122 235 
122 236 
122 264 
122 270 
122 282 
123 148 
123 196 
123 198 
123 217 
123 232 
123 237 
123 241 
123 251 
123 269 
123 271 
123 283 
123 284 
124 146 
124 166 
124 181 
124 192 
124 194 
124 205 
124 228 
124 253 
124 265 
124 267 
124 278 
124 285 
125 153 
125 167 
125 171 
125 202 
125 206 
125 213 
125 224 
125 242 
125 249 
125 252 
125 276 
125 288 
126 207 
126 214 
126 216 
126 221 
126 223 
126 227 
126 233 
126 234 
126 243 
126 256 
126 259 
126 281 
127 157 
127 198 
127 217 
127 237 
127 241 
127 251 
127 254 
127 269 
127 272 
127 277 
127 280 
127 283 
128 154 
128 164 
128 165 
128 170 
128 182 
128 204 
128 209 
128 218 
128 222 
128 239 
128 261 
128 263 
129 158 
129 180 
129 250 
129 251 
129 254 
129 255 
129 271 
129 272 
129 273 
129 277 
129 280 
129 283 
130 147 
130 157 
130 198 
130 237 
130 241 
130 250 
130 251 
130 255 
130 272 
130 277 
130 280 
130 284 
131 168 
131 169 
131 172 
131 176 
131 185 
131 189 
131 190 
131 199 
131 236 
131 248 
131 264 
131 282 
132 153 
132 167 
132 171 
132 187 
132 200 
132 202 
132 208 
132 224 
132 226 
132 230 
132 266 
132 276 
133 168 
133 172 
133 175 
133 176 
133 188 
133 190 
133 199 
133 235 
133 236 
133 264 
133 270 
133 282 
134 154 
134 161 
134 170 
134 201 
134 204 
134 219 
134 220 
134 239 
134 245 
134 246 
134 261 
134 263 
135 146 
135 152 
135 156 
135 166 
135 181 
135 184 
135 192 
135 193 
135 212 
135 225 
135 278 
135 285 
136 160 
136 174 
136 207 
136 214 
136 216 
136 223 
136 233 
136 234 
136 243 
136 259 
136 281 
136 287 
137 151 
137 155 
137 160 
137 174 
137 207 
137 214 
137 223 
137 233 
137 234 
137 243 
137 281 
137 287 
138 145 
138 159 
138 174 
138 203 
138 216 
138 221 
138 227 
138 233 
138 243 
138 244 
138 259 
138 281 
139 152 
139 156 
139 184 
139 193 
139 212 
139 225 
139 238 
139 240 
139 260 
139 275 
139 279 
139 286 
140 145 
140 159 
140 160 
140 183 
140 203 
140 210 
140 216 
140 227 
140 243 
140 244 
140 256 
140 259 
141 151 
141 155 
141 159 
141 160 
141 174 
141 183 
141 207 
141 214 
141 227 
141 233 
141 234 
141 243 
142 153 
142 187 
142 195 
142 197 
142 200 
142 202 
142 208 
142 213 
142 230 
142 242 
142 247 
142 276 
143 146 
143 152 
143 156 
143 181 
143 184 
143 192 
143 193 
143 212 
143 225 
143 238 
143 285 
143 286 
144 145 
144 151 
144 155 
144 160 
144 203 
144 223 
144 227 
144 233 
144 234 
144 243 
144 256 
144 281 
